n_res = 4;
rcap = [15, 12, 82, 82];
rtype = [1, 1, 2, 2];
n_tasks = 14;
modes = [ {1, 2, 3}, {4, 5, 6}, {7, 8, 9}, {10, 11, 12}, {13, 14, 15}, {16, 17, 18}, {19, 20, 21}, {22, 23, 24}, {25, 26, 27}, {28, 29, 30}, {31, 32, 33}, {34, 35, 36}, {37, 38, 39}, {40, 41, 42} ];
succ = [ {5, 7, 14}, {4, 9, 10}, {5, 6, 7}, {11, 12}, {10, 12}, {8, 9}, {13}, {10, 12, 14}, {11, 14}, {11}, {13}, {}, {}, {} ];
n_opt = 42;
dur = [2, 5, 5, 3, 8, 8, 4, 5, 7, 2, 6, 10, 2, 2, 3, 2, 2, 3, 1, 6, 9, 1, 1, 7, 2, 3, 5, 1, 3, 4, 1, 2, 2, 2, 5, 10, 3, 5, 5, 4, 6, 8];
rreq = [| 10,  6,  8,  7,  4,  2,  7,  4,  3,  6,  5,  4,  4,  6,  3,  7,  9,  7, 10,  8,  6,  8,  7,  5,  8,  5,  4, 10,  9,  9,  8,  2,  4,  8,  7,  5,  5,  5,  3,  8,  5,  2
        |  4,  3,  3,  5,  3,  2,  7,  7,  5, 10,  8,  5,  6,  7,  5,  4,  3,  3,  9,  7,  6,  9,  8,  6,  9,  5,  4,  2,  2,  1,  6,  6,  5,  7,  6,  4,  5,  4,  4,  2,  2,  1
        |  9,  7,  5,  7,  4,  7,  7,  7,  4,  8,  5,  3,  6,  5,  5,  4,  4,  4,  8,  7,  7,  7,  6,  2,  9,  8,  7,  4,  2,  1,  7,  5,  5,  5,  5,  5, 10,  8,  9,  8,  7,  5
        |  6,  2,  2,  7,  6,  3,  9,  9,  9,  8,  7,  6,  6,  8,  3,  4,  4,  1,  9,  9,  6,  5,  6,  2,  7,  3,  2,  8,  8,  8,  8,  4,  6,  7,  5,  5,  6,  6,  6,  9,  6,  5 |];
